 System = Si
 ISTART = 0
 PREC = medium
 ICHARGE = 11
 EDIFF = 1.0E-08
 ENCUT = 600
 ALGO = A
 GGA= PE
 LORBIT = 11
