System = Si
ISMEAR = 0; SIGMA = 0.1;
ENCUT =  600
IBRION = 2; ISIF=3 ; NSW=15
EDIFF  = 1.0E-08
EDIFFG = -0.01
GGA= PE
