 System = Si
 ISTART = 0
 PREC = medium
 ICHARG = 2 
 ENCUT = 600
 EDIFF = 1.0E-08
 ALGO = A
 GGA= PE
 LORBIT = 11
