generated by phonopy
   1.0
    10.8620000000000001    0.0000000000000000    0.0000000000000000
     0.0000000000000000   10.8620000000000001    0.0000000000000000
     0.0000000000000000    0.0000000000000000   10.8620000000000001
Si
  64
Direct
  0.0009206407659731  0.0000000000000000  0.0000000000000000
  0.4999999999999999  0.0000000000000000  0.0000000000000000
  0.0000000000000000  0.4999999999999999  0.0000000000000000
  0.4999999999999999  0.4999999999999999  0.0000000000000000
  0.0000000000000000  0.0000000000000000  0.4999999999999999
  0.4999999999999999  0.0000000000000000  0.4999999999999999
  0.0000000000000000  0.4999999999999999  0.4999999999999999
  0.4999999999999999  0.4999999999999999  0.4999999999999999
  0.2499999999999999  0.2499999999999999  0.0000000000000000
  0.7499999999999999  0.2499999999999999  0.0000000000000000
  0.2499999999999999  0.7499999999999999  0.0000000000000000
  0.7499999999999999  0.7499999999999999  0.0000000000000000
  0.2499999999999999  0.2499999999999999  0.4999999999999999
  0.7499999999999999  0.2499999999999999  0.4999999999999999
  0.2499999999999999  0.7499999999999999  0.4999999999999999
  0.7499999999999999  0.7499999999999999  0.4999999999999999
  0.0000000000000000  0.2499999999999999  0.2499999999999999
  0.4999999999999999  0.2499999999999999  0.2499999999999999
  0.0000000000000000  0.7499999999999999  0.2499999999999999
  0.4999999999999999  0.7499999999999999  0.2499999999999999
  0.0000000000000000  0.2499999999999999  0.7499999999999999
  0.4999999999999999  0.2499999999999999  0.7499999999999999
  0.0000000000000000  0.7499999999999999  0.7499999999999999
  0.4999999999999999  0.7499999999999999  0.7499999999999999
  0.2499999999999999  0.0000000000000000  0.2499999999999999
  0.7499999999999999  0.0000000000000000  0.2499999999999999
  0.2499999999999999  0.4999999999999999  0.2499999999999999
  0.7499999999999999  0.4999999999999999  0.2499999999999999
  0.2499999999999999  0.0000000000000000  0.7499999999999999
  0.7499999999999999  0.0000000000000000  0.7499999999999999
  0.2499999999999999  0.4999999999999999  0.7499999999999999
  0.7499999999999999  0.4999999999999999  0.7499999999999999
  0.1250000000000000  0.1250000000000000  0.1250000000000000
  0.6250000000000000  0.1250000000000000  0.1250000000000000
  0.1250000000000000  0.6250000000000000  0.1250000000000000
  0.6250000000000000  0.6250000000000000  0.1250000000000000
  0.1250000000000000  0.1250000000000000  0.6250000000000000
  0.6250000000000000  0.1250000000000000  0.6250000000000000
  0.1250000000000000  0.6250000000000000  0.6250000000000000
  0.6250000000000000  0.6250000000000000  0.6250000000000000
  0.3749999999999999  0.3749999999999999  0.1250000000000000
  0.8750000000000000  0.3749999999999999  0.1250000000000000
  0.3749999999999999  0.8750000000000000  0.1250000000000000
  0.8750000000000000  0.8750000000000000  0.1250000000000000
  0.3749999999999999  0.3749999999999999  0.6250000000000000
  0.8750000000000000  0.3749999999999999  0.6250000000000000
  0.3749999999999999  0.8750000000000000  0.6250000000000000
  0.8750000000000000  0.8750000000000000  0.6250000000000000
  0.3749999999999999  0.1250000000000000  0.3749999999999999
  0.8750000000000000  0.1250000000000000  0.3749999999999999
  0.3749999999999999  0.6250000000000000  0.3749999999999999
  0.8750000000000000  0.6250000000000000  0.3749999999999999
  0.3749999999999999  0.1250000000000000  0.8750000000000000
  0.8750000000000000  0.1250000000000000  0.8750000000000000
  0.3749999999999999  0.6250000000000000  0.8750000000000000
  0.8750000000000000  0.6250000000000000  0.8750000000000000
  0.1250000000000000  0.3749999999999999  0.3749999999999999
  0.6250000000000000  0.3749999999999999  0.3749999999999999
  0.1250000000000000  0.8750000000000000  0.3749999999999999
  0.6250000000000000  0.8750000000000000  0.3749999999999999
  0.1250000000000000  0.3749999999999999  0.8750000000000000
  0.6250000000000000  0.3749999999999999  0.8750000000000000
  0.1250000000000000  0.8750000000000000  0.8750000000000000
  0.6250000000000000  0.8750000000000000  0.8750000000000000
