Si
1.000000
      5.43100000        0.00000000        0.00000000
      0.00000000        5.43100000        0.00000000
      0.00000000        0.00000000        5.43100000
     8
Cartesian
      0.00000000        0.00000000        0.00000000
      2.71550000        2.71550000        0.00000000
      0.00000000        2.71550000        2.71550000
      2.71550000        0.00000000        2.71550000
      1.35775000        1.35775000        1.35775000
      4.07325000        4.07325000        1.35775000
      4.07325000        1.35775000        4.07325000
      1.35775000        4.07325000        4.07325000
